50

100 29 319
99 46 423
99 19 367
97 38 398
97 18 323
96 45 378
96 22 359
96 23 357
93 15 401
93 2 473
91 23 330
84 37 307
83 11 249
81 31 250
79 31 446
78 29 468
77 25 391
74 9 227
71 22 465
67 3 392
66 21 455
63 8 291
62 6 320
61 25 362
61 15 237
61 6 227
59 21 297
59 19 216
59 14 306
58 13 459
57 13 333
56 12 420
54 17 240
54 7 233
53 24 374
53 6 295
51 3 454
50 11 265
49 23 350
48 12 276
45 8 273
45 7 434
45 20 470
40 16 417
40 3 405
39 16 394
39 18 233
34 3 150
32 4 271
30 11 283
